User:   pfsuo@cu04
Date:   Sun Jan 10 07:07:02 2021
Arch:   x86_64
Pid:    24214
Python: 3.8.6
gpaw:   /home/pfsuo/data0/anaconda3/lib/python3.8/site-packages/gpaw
_gpaw:  /home/pfsuo/data0/anaconda3/lib/python3.8/site-packages/
        _gpaw.cpython-38-x86_64-linux-gnu.so
ase:    /home/pfsuo/data0/anaconda3/lib/python3.8/site-packages/ase (version 3.20.1)
numpy:  /home/pfsuo/data0/anaconda3/lib/python3.8/site-packages/numpy (version 1.18.5)
scipy:  /home/pfsuo/data0/anaconda3/lib/python3.8/site-packages/scipy (version 1.5.4)
units:  Angstrom and eV
cores: 16
OMP_NUM_THREADS: 1

Input parameters:
  kpts: {density: 11,
         gamma: True}
  mode: {ecut: 600.0,
         gammacentered: False,
         name: pw}
  occupations: {fixmagmom: False,
                name: fermi-dirac,
                width: 0.01}
  random: True

System changes: positions, numbers, cell, pbc, initial_charges, initial_magmoms

Initialize ...

C-setup:
  name: Carbon
  id: d60576a1f549371a163e72552ca58787
  Z: 6.0
  valence: 4
  core: 2
  charge: 0.0
  file: /home/pfsuo/software/gpaw-setups-0.9.20000/C.LDA.gz
  compensation charges: gauss, rc=0.20, lmax=2
  cutoffs: 1.14(filt), 1.14(core),
  valence states:
                energy  radius
    2s(2.00)   -13.639   0.635
    2p(2.00)    -5.414   0.635
    *s          13.573   0.635
    *p          21.797   0.635
    *d           0.000   0.635

  Using partial waves for C as LCAO basis

Li-setup:
  name: Lithium
  id: b73562207f97a71b6967473b66fe8b65
  Z: 3.0
  valence: 1
  core: 2
  charge: 0.0
  file: /home/pfsuo/software/gpaw-setups-0.9.20000/Li.LDA.gz
  compensation charges: gauss, rc=0.33, lmax=2
  cutoffs: 1.91(filt), 2.55(core),
  valence states:
                energy  radius
    2s(1.00)    -2.874   1.058
    2p(0.00)    -1.126   1.058
    *s          24.338   1.058

  Using partial waves for Li as LCAO basis

Reference energy: -6312.424022

Spin-paired calculation

Convergence criteria:
  Maximum total energy change: 0.0005 eV / electron
  Maximum integral of absolute density change: 0.0001 electrons
  Maximum integral of absolute eigenstate change: 4e-08 eV^2
  Maximum number of iterations: 333

Symmetries present (total): 4

  ( 1  0  0)  ( 1  0  0)  ( 0  1  0)  ( 0  1  0)
  ( 0  1  0)  ( 0  1  0)  ( 1  0  0)  ( 1  0  0)
  ( 0  0  1)  ( 0  0 -1)  ( 0  0  1)  ( 0  0 -1)

6859 k-points: 19 x 19 x 19 Monkhorst-Pack grid
1000 k-points in the irreducible part of the Brillouin zone
       k-points in crystal coordinates                weights
   0:     0.00000000    0.00000000    0.00000000          1/6859
   1:     0.00000000    0.00000000    0.05263158          2/6859
   2:     0.00000000    0.00000000    0.10526316          2/6859
   3:     0.00000000    0.00000000    0.15789474          2/6859
   4:     0.00000000    0.00000000    0.21052632          2/6859
   5:     0.00000000    0.00000000    0.26315789          2/6859
   6:     0.00000000    0.00000000    0.31578947          2/6859
   7:     0.00000000    0.00000000    0.36842105          2/6859
   8:     0.00000000    0.00000000    0.42105263          2/6859
   9:     0.00000000    0.00000000    0.47368421          2/6859
          ...
 999:     0.47368421    0.47368421    0.47368421          4/6859

Wave functions: Plane wave expansion
  Cutoff energy: 600.000 eV
  Number of coefficients (min, max): 1934, 1995
  Pulay-stress correction: 0.000000 eV/Ang^3 (de/decut=0.000000)
  Using FFTW library
  ScaLapack parameters: grid=1x1, blocksize=None
  Wavefunction extrapolation:
    Improved wavefunction reuse through dual PAW basis

  Fermi-Dirac: width=0.0100 eV

Eigensolver
   Davidson(niter=2, smin=None, normalize=True)

Densities:
  Coarse grid: 25*25*21 grid
  Fine grid: 50*50*42 grid
  Total Charge: 0.000000

Density mixing:
  Method: separate
  Backend: pulay
  Linear mixing parameter: 0.05
  Mixing with 5 old densities
  Damping of long wave oscillations: 50

Hamiltonian:
  XC and Coulomb potentials evaluated on a 50*50*42 grid
  Using the LDA Exchange-Correlation functional

Total number of cores used: 16
Parallelization over k-points: 16

Number of atoms: 7
Number of atomic orbitals: 28
Number of bands in calculation: 19
Number of valence electrons: 25
Bands to converge: occupied

... initialized

Initializing position-dependent things.

Density initialized from atomic densities
Creating initial wave functions:
  19 bands from LCAO basis set

           Li

        C   C C
        C C   C

Positions:
   0 C      0.000000    0.000000    0.000000    ( 0.0000,  0.0000,  0.0000)
   1 C      1.235500    0.713316    0.000000    ( 0.0000,  0.0000,  0.0000)
   2 C     -1.235500    2.139949    0.000000    ( 0.0000,  0.0000,  0.0000)
   3 C      0.000000    2.853265    0.000000    ( 0.0000,  0.0000,  0.0000)
   4 C      1.235500    2.139949    0.000000    ( 0.0000,  0.0000,  0.0000)
   5 C     -1.235500    0.713316    0.000000    ( 0.0000,  0.0000,  0.0000)
   6 Li     0.000000    1.426633    1.850000    ( 0.0000,  0.0000,  0.0000)

Unit cell:
           periodic     x           y           z      points  spacing
  1. axis:    yes    3.706500    2.139949    0.000000    25     0.1483
  2. axis:    yes   -3.706500    2.139949    0.000000    25     0.1483
  3. axis:    yes    0.000000    0.000000    3.700000    21     0.1762

  Lengths:   4.279898   4.279898   3.700000
  Angles:   90.000000  90.000000 120.000000

Effective grid spacing dv^(1/3) = 0.1648

                     log10-error:    total        iterations:
           time      wfs    density  energy       poisson
iter:   1  07:07:38                 -66.425357
iter:   2  07:07:42  -1.31  -0.81   -65.972462
iter:   3  07:07:45  -0.40  -0.83   -63.855329
iter:   4  07:07:49  -1.27  -1.18   -63.184931
iter:   5  07:07:52  -2.07  -1.34   -63.359680
iter:   6  07:07:55  -1.86  -1.44   -63.150436
iter:   7  07:07:59  -3.55  -2.53   -63.150666
iter:   8  07:08:02  -3.63  -2.48   -63.154595
iter:   9  07:08:05  -3.78  -2.27   -63.150441
iter:  10  07:08:09  -5.66  -2.94   -63.150449
iter:  11  07:08:12  -5.93  -2.96   -63.150386
iter:  12  07:08:15  -5.47  -3.10   -63.150299
iter:  13  07:08:18  -7.08  -3.60   -63.150299
iter:  14  07:08:22  -6.52  -3.62   -63.150291
iter:  15  07:08:25  -7.54  -4.02   -63.150290

Converged after 15 iterations.

Dipole moment: (0.000000, -0.412830, -0.000000) |e|*Ang

Energy contributions relative to reference atoms: (reference = -6312.424022)

Kinetic:        +63.836040
Potential:      -60.534360
External:        +0.000000
XC:             -66.546544
Entropy (-ST):   -0.000439
Local:           +0.094793
Free energy:    -63.150509
Extrapolated:   -63.150290

Showing only first 2 kpts
 Kpt  Band  Eigenvalues  Occupancy
  0    10      6.08787    0.00029
  0    11      6.08789    0.00029
  0    12      6.44622    0.00029
  0    13      6.44623    0.00029

  1    10      6.04249    0.00058
  1    11      6.04250    0.00058
  1    12      6.41796    0.00058
  1    13      6.41798    0.00058

Fermi level: 7.48926

No gap

Forces in eV/Ang:
  0 C     0.00000   -0.08958    0.00000
  1 C     0.07753   -0.04480    0.00000
  2 C    -0.07759    0.04477    0.00000
  3 C     0.00000    0.08964    0.00000
  4 C     0.07759    0.04477    0.00000
  5 C    -0.07753   -0.04480    0.00000
  6 Li    0.00000   -0.00001    0.00000

System changes: positions

[...]

Density initialized from wave functions

[...]

System changes: positions

Initializing position-dependent things.

Density initialized from wave functions

           Li

        C   C C
        C C   C

Positions:
   0 C      0.000000   -0.001015    0.000000    ( 0.0000,  0.0000,  0.0000)
   1 C      1.236379    0.712809    0.000000    ( 0.0000,  0.0000,  0.0000)
   2 C     -1.236379    2.140456    0.000000    ( 0.0000,  0.0000,  0.0000)
   3 C      0.000000    2.854279    0.000000    ( 0.0000,  0.0000,  0.0000)
   4 C      1.236379    2.140456    0.000000    ( 0.0000,  0.0000,  0.0000)
   5 C     -1.236379    0.712809    0.000000    ( 0.0000,  0.0000,  0.0000)
   6 Li     0.000000    1.426633    1.850000    ( 0.0000,  0.0000,  0.0000)

Unit cell:
           periodic     x           y           z      points  spacing
  1. axis:    yes    3.706500    2.139949    0.000000    25     0.1483
  2. axis:    yes   -3.706500    2.139949    0.000000    25     0.1483
  3. axis:    yes    0.000000    0.000000    3.700000    21     0.1762

  Lengths:   4.279898   4.279898   3.700000
  Angles:   90.000000  90.000000 120.000000

Effective grid spacing dv^(1/3) = 0.1648

                     log10-error:    total        iterations:
           time      wfs    density  energy       poisson
iter:   1  07:08:55  -5.35          -63.150585
iter:   2  07:08:58  -6.98  -3.65   -63.150583
iter:   3  07:09:01  -5.75  -3.67   -63.150575
iter:   4  07:09:04  -7.27  -4.09   -63.150574
iter:   5  07:09:08  -8.53  -4.79   -63.150574

Converged after 5 iterations.

Dipole moment: (-0.000000, -0.352926, 0.000000) |e|*Ang

Energy contributions relative to reference atoms: (reference = -6312.424022)

Kinetic:        +63.824542
Potential:      -60.533875
External:        +0.000000
XC:             -66.540816
Entropy (-ST):   -0.000438
Local:           +0.099794
Free energy:    -63.150793
Extrapolated:   -63.150574

Showing only first 2 kpts
 Kpt  Band  Eigenvalues  Occupancy
  0    10      6.10201    0.00029
  0    11      6.10203    0.00029
  0    12      6.43238    0.00029
  0    13      6.43241    0.00029

  1    10      6.05653    0.00058
  1    11      6.05655    0.00058
  1    12      6.40418    0.00058
  1    13      6.40421    0.00058

Fermi level: 7.48759

No gap

Forces in eV/Ang:
  0 C     0.00000   -0.00332    0.00000
  1 C     0.00291   -0.00163    0.00000
  2 C    -0.00286    0.00166    0.00000
  3 C     0.00000    0.00326    0.00000
  4 C     0.00286    0.00166    0.00000
  5 C    -0.00291   -0.00163    0.00000
  6 Li    0.00000    0.00001    0.00000

Writing to gs.gpw (mode='all')