User:   pfsuo@cu17
Date:   Tue Mar  9 19:19:48 2021
Arch:   x86_64
Pid:    21306
Python: 3.8.5
gpaw:   /home/pfsuo/data0/anaconda3/lib/python3.8/site-packages/gpaw
_gpaw:  /home/pfsuo/data0/anaconda3/lib/python3.8/site-packages/
        _gpaw.cpython-38-x86_64-linux-gnu.so
ase:    /home/pfsuo/data0/anaconda3/lib/python3.8/site-packages/ase (version 3.21.1)
numpy:  /home/pfsuo/data0/anaconda3/lib/python3.8/site-packages/numpy (version 1.20.1)
scipy:  /home/pfsuo/data0/anaconda3/lib/python3.8/site-packages/scipy (version 1.6.1)
units:  Angstrom and eV
cores: 24
OpenMP: False
OMP_NUM_THREADS: 1

Input parameters:
  kpts: {density: 11,
         gamma: True}
  mode: {ecut: 600.0,
         gammacentered: False,
         name: pw}
  occupations: {fixmagmom: False,
                name: fermi-dirac,
                width: 0.01}
  random: True

System changes: positions, numbers, cell, pbc, initial_charges, initial_magmoms

Initialize ...

C-setup:
  name: Carbon
  id: d60576a1f549371a163e72552ca58787
  Z: 6.0
  valence: 4
  core: 2
  charge: 0.0
  file: /home/pfsuo/software/gpaw-setups-0.9.20000/C.LDA.gz
  compensation charges: gauss, rc=0.20, lmax=2
  cutoffs: 1.14(filt), 1.14(core),
  valence states:
                energy  radius
    2s(2.00)   -13.639   0.635
    2p(2.00)    -5.414   0.635
    *s          13.573   0.635
    *p          21.797   0.635
    *d           0.000   0.635

  Using partial waves for C as LCAO basis

Li-setup:
  name: Lithium
  id: b73562207f97a71b6967473b66fe8b65
  Z: 3.0
  valence: 1
  core: 2
  charge: 0.0
  file: /home/pfsuo/software/gpaw-setups-0.9.20000/Li.LDA.gz
  compensation charges: gauss, rc=0.33, lmax=2
  cutoffs: 1.91(filt), 2.55(core),
  valence states:
                energy  radius
    2s(1.00)    -2.874   1.058
    2p(0.00)    -1.126   1.058
    *s          24.338   1.058

  Using partial waves for Li as LCAO basis

Reference energy: -8350.029098

Spin-paired calculation

Convergence criteria:
  Maximum total energy change: 0.0005 eV / electron
  Maximum integral of absolute density change: 0.0001 electrons
  Maximum integral of absolute eigenstate change: 4e-08 eV^2
  Maximum number of iterations: 333

Symmetries present (total): 4

  ( 1  0  0)  ( 1  0  0)  (-1  0  0)  (-1  0  0)
  ( 0  1  0)  ( 0  1  0)  ( 1  1  0)  ( 1  1  0)
  ( 0  0  1)  ( 0  0 -1)  ( 0  0  1)  ( 0  0 -1)

4275 k-points: 15 x 15 x 19 Monkhorst-Pack grid
640 k-points in the irreducible part of the Brillouin zone
       k-points in crystal coordinates                weights
   0:     0.00000000    0.00000000    0.00000000          1/4275
   1:     0.00000000    0.00000000    0.05263158          2/4275
   2:     0.00000000    0.00000000    0.10526316          2/4275
   3:     0.00000000    0.00000000    0.15789474          2/4275
   4:     0.00000000    0.00000000    0.21052632          2/4275
   5:     0.00000000    0.00000000    0.26315789          2/4275
   6:     0.00000000    0.00000000    0.31578947          2/4275
   7:     0.00000000    0.00000000    0.36842105          2/4275
   8:     0.00000000    0.00000000    0.42105263          2/4275
   9:     0.00000000    0.00000000    0.47368421          2/4275
          ...
 639:     0.46666667    0.46666667    0.47368421          8/4275

Wave functions: Plane wave expansion
  Cutoff energy: 600.000 eV
  Number of coefficients (min, max): 3455, 3509
  Pulay-stress correction: 0.000000 eV/Ang^3 (de/decut=0.000000)
  Using Numpy's FFT
  ScaLapack parameters: grid=1x1, blocksize=None
  Wavefunction extrapolation:
    Improved wavefunction reuse through dual PAW basis

  Fermi-Dirac: width=0.0100 eV

Eigensolver
   Davidson(niter=2, smin=None, normalize=True)

Densities:
  Coarse grid: 35*35*21 grid
  Fine grid: 70*70*42 grid
  Total Charge: 0.000000

Density mixing:
  Method: separate
  Backend: pulay
  Linear mixing parameter: 0.05
  Mixing with 5 old densities
  Damping of long wave oscillations: 50

Hamiltonian:
  XC and Coulomb potentials evaluated on a 70*70*42 grid
  Using the LDA Exchange-Correlation functional

Total number of cores used: 24
Parallelization over k-points: 24

Number of atoms: 9
Number of atomic orbitals: 36
Number of bands in calculation: 24
Number of valence electrons: 33
Bands to converge: occupied

... initialized

Initializing position-dependent things.

Density initialized from atomic densities
Creating initial wave functions:
  24 bands from LCAO basis set

            Li
             C      C
         C      C
           C   C  C   C

Positions:
   0 C      0.000000   -0.023027    0.000000    ( 0.0000,  0.0000,  0.0000)
   1 C      1.444665    0.811051    0.000000    ( 0.0000,  0.0000,  0.0000)
   2 C     -1.444666    2.479206    0.000000    ( 0.0000,  0.0000,  0.0000)
   3 C      0.000000    3.313284    0.000000    ( 0.0000,  0.0000,  0.0000)
   4 C      2.849446    0.000000    0.000000    ( 0.0000,  0.0000,  0.0000)
   5 C      4.254227    0.811051    0.000000    ( 0.0000,  0.0000,  0.0000)
   6 C      1.444666    2.479206    0.000000    ( 0.0000,  0.0000,  0.0000)
   7 C      2.849446    3.290257    0.000000    ( 0.0000,  0.0000,  0.0000)
   8 Li     0.000000    1.645128    1.850000    ( 0.0000,  0.0000,  0.0000)

Unit cell:
           periodic     x           y           z      points  spacing
  1. axis:    yes    5.698892    0.000000    0.000000    35     0.1410
  2. axis:    yes   -2.849446    4.935385    0.000000    35     0.1410
  3. axis:    yes    0.000000    0.000000    3.700000    21     0.1762

  Lengths:   5.698892   5.698892   3.700000
  Angles:   90.000000  90.000000 120.000000

Effective grid spacing dv^(1/3) = 0.1593

                     log10-error:    total        iterations:
           time      wfs    density  energy       poisson
iter:   1  19:20:15                 -75.036824
iter:   2  19:20:21  -1.43  -0.98   -74.998606
iter:   3  19:20:27  -1.33  -1.00   -74.396585
iter:   4  19:20:33  -2.13  -1.42   -74.439100
iter:   5  19:20:39  -1.89  -1.52   -74.402952
iter:   6  19:20:45  -2.70  -1.76   -74.429334
iter:   7  19:20:51  -1.88  -1.65   -74.389881
iter:   8  19:20:57  -2.78  -1.86   -74.352104
iter:   9  19:21:03  -4.42  -2.91   -74.352245
iter:  10  19:21:09  -4.75  -2.92   -74.351947
iter:  11  19:21:15  -5.75  -3.09   -74.351925
iter:  12  19:21:21  -6.40  -3.13   -74.351924
iter:  13  19:21:27  -5.82  -3.14   -74.351919
iter:  14  19:21:33  -5.46  -3.41   -74.351915
iter:  15  19:21:39  -6.14  -3.39   -74.351893
iter:  16  19:21:45  -6.67  -3.55   -74.351890
iter:  17  19:21:52  -6.36  -3.61   -74.351887
iter:  18  19:21:58  -6.91  -3.90   -74.351885
iter:  19  19:22:04  -7.40  -4.09   -74.351885

Converged after 19 iterations.

Dipole moment: (2.299212, -1.166701, -0.000000) |e|*Ang

Energy contributions relative to reference atoms: (reference = -8350.029098)

Kinetic:        -43.457933
Potential:      +21.464279
External:        +0.000000
XC:             -52.497708
Entropy (-ST):   -0.000567
Local:           +0.139760
Free energy:    -74.352169
Extrapolated:   -74.351885

Showing only first 2 kpts
 Kpt  Band  Eigenvalues  Occupancy
  0    14      1.84158    0.00047
  0    15      2.03674    0.00047
  0    16      4.80278    0.00000
  0    17      4.88289    0.00000

  1    14      1.79478    0.00094
  1    15      2.00460    0.00094
  1    16      4.77379    0.00000
  1    17      4.84296    0.00000

Fermi level: 4.02609

No gap
Writing to gs.gpw (mode='all')