User:   pfsuo@cu17
Date:   Tue Mar  9 21:27:59 2021
Arch:   x86_64
Pid:    21816
Python: 3.8.5
gpaw:   /home/pfsuo/data0/anaconda3/lib/python3.8/site-packages/gpaw
_gpaw:  /home/pfsuo/data0/anaconda3/lib/python3.8/site-packages/
        _gpaw.cpython-38-x86_64-linux-gnu.so
ase:    /home/pfsuo/data0/anaconda3/lib/python3.8/site-packages/ase (version 3.21.1)
numpy:  /home/pfsuo/data0/anaconda3/lib/python3.8/site-packages/numpy (version 1.20.1)
scipy:  /home/pfsuo/data0/anaconda3/lib/python3.8/site-packages/scipy (version 1.6.1)
units:  Angstrom and eV
cores: 22
OpenMP: False
OMP_NUM_THREADS: 1

Input parameters:
  convergence: {bands: 60}
  kpts: [[ 0.52380952 -0.47619048 -0.48076923],
         [ 0.52380952 -0.47619048 -0.46153846],
         [ 0.52380952 -0.47619048 -0.44230769],
         ...,
         [ 0.5        -0.5         0.46153846],
         [ 0.5        -0.5         0.48076923],
         [ 0.5        -0.5         0.5       ]]
  mode: {ecut: 600.0,
         gammacentered: False,
         name: pw}
  nbands: 80
  occupations: {fixmagmom: False,
                name: fermi-dirac,
                width: 0.001}
  random: True

Initialize ...

C-setup:
  name: Carbon
  id: d60576a1f549371a163e72552ca58787
  Z: 6.0
  valence: 4
  core: 2
  charge: 0.0
  file: /home/pfsuo/software/gpaw-setups-0.9.20000/C.LDA.gz
  compensation charges: gauss, rc=0.20, lmax=2
  cutoffs: 1.14(filt), 1.14(core),
  valence states:
                energy  radius
    2s(2.00)   -13.639   0.635
    2p(2.00)    -5.414   0.635
    *s          13.573   0.635
    *p          21.797   0.635
    *d           0.000   0.635

  Using partial waves for C as LCAO basis

Li-setup:
  name: Lithium
  id: b73562207f97a71b6967473b66fe8b65
  Z: 3.0
  valence: 1
  core: 2
  charge: 0.0
  file: /home/pfsuo/software/gpaw-setups-0.9.20000/Li.LDA.gz
  compensation charges: gauss, rc=0.33, lmax=2
  cutoffs: 1.91(filt), 2.55(core),
  valence states:
                energy  radius
    2s(1.00)    -2.874   1.058
    2p(0.00)    -1.126   1.058
    *s          24.338   1.058

  Using partial waves for Li as LCAO basis

Reference energy: -8350.029098

Spin-paired calculation

Convergence criteria:
  Maximum total energy change: 0.0005 eV / electron
  Maximum integral of absolute density change: 0.0001 electrons
  Maximum integral of absolute eigenstate change: 4e-08 eV^2
  Maximum number of iterations: 333

Symmetries present (total): 4

  ( 1  0  0)  ( 1  0  0)  (-1  0  0)  (-1  0  0)
  ( 0  1  0)  ( 0  1  0)  ( 1  1  0)  ( 1  1  0)
  ( 0  0  1)  ( 0  0 -1)  ( 0  0  1)  ( 0  0 -1)

91728 k-points
12501 k-points in the irreducible part of the Brillouin zone
       k-points in crystal coordinates                weights
   0:    -0.00000000   -0.00000000   -0.00000000       0.00001090
   1:    -0.00000000   -0.00000000    0.01923077       0.00002180
   2:    -0.00000000   -0.00000000    0.03846154       0.00002180
   3:    -0.00000000   -0.00000000    0.05769231       0.00002180
   4:    -0.00000000   -0.00000000    0.07692308       0.00002180
   5:    -0.00000000   -0.00000000    0.09615385       0.00002180
   6:    -0.00000000   -0.00000000    0.11538462       0.00002180
   7:    -0.00000000   -0.00000000    0.13461538       0.00002180
   8:    -0.00000000   -0.00000000    0.15384615       0.00002180
   9:    -0.00000000   -0.00000000    0.17307692       0.00002180
          ...
12500:     0.50000000   -0.50000000    0.50000000       0.00002180

Wave functions: Plane wave expansion
  Cutoff energy: 600.000 eV
  Number of coefficients (min, max): 3452, 3509
  Pulay-stress correction: 0.000000 eV/Ang^3 (de/decut=0.000000)
  Using Numpy's FFT
  ScaLapack parameters: grid=1x1, blocksize=None
  Wavefunction extrapolation:
    Improved wavefunction reuse through dual PAW basis

  Fermi-Dirac: width=0.0010 eV

Eigensolver
   Davidson(niter=2, smin=None, normalize=True)

Densities:
  Coarse grid: 35*35*21 grid
  Fine grid: 70*70*42 grid
  Total Charge: 0.000000

Density mixing:
  Method: separate
  Backend: pulay
  Linear mixing parameter: 0.05
  Mixing with 5 old densities
  Damping of long wave oscillations: 50

Hamiltonian:
  XC and Coulomb potentials evaluated on a 70*70*42 grid
  Using the LDA Exchange-Correlation functional

Total number of cores used: 22
Parallelization over k-points: 22

Number of atoms: 9
Number of atomic orbitals: 36
Number of bands in calculation: 80
Number of valence electrons: 33
Bands to converge: 60

... initialized

Initializing position-dependent things.

Creating initial wave functions:
  36 bands from LCAO basis set
  44 bands from random numbers

            Li
             C      C
         C      C
           C   C  C   C

Positions:
   0 C      0.000000   -0.023027    0.000000    ( 0.0000,  0.0000,  0.0000)
   1 C      1.444665    0.811051    0.000000    ( 0.0000,  0.0000,  0.0000)
   2 C     -1.444666    2.479206    0.000000    ( 0.0000,  0.0000,  0.0000)
   3 C      0.000000    3.313284    0.000000    ( 0.0000,  0.0000,  0.0000)
   4 C      2.849446    0.000000    0.000000    ( 0.0000,  0.0000,  0.0000)
   5 C      4.254227    0.811051    0.000000    ( 0.0000,  0.0000,  0.0000)
   6 C      1.444666    2.479206    0.000000    ( 0.0000,  0.0000,  0.0000)
   7 C      2.849446    3.290257    0.000000    ( 0.0000,  0.0000,  0.0000)
   8 Li     0.000000    1.645128    1.850000    ( 0.0000,  0.0000,  0.0000)

Unit cell:
           periodic     x           y           z      points  spacing
  1. axis:    yes    5.698892    0.000000    0.000000    35     0.1410
  2. axis:    yes   -2.849446    4.935385    0.000000    35     0.1410
  3. axis:    yes    0.000000    0.000000    3.700000    21     0.1762

  Lengths:   5.698892   5.698892   3.700000
  Angles:   90.000000  90.000000 120.000000

Effective grid spacing dv^(1/3) = 0.1593

                     log10-error:    total        iterations:
           time      wfs    density  energy       poisson
iter:   1  21:50:05  +2.68          -74.339787
iter:   2  22:00:06  +1.36          -74.351414
iter:   3  22:10:07  +0.11          -74.351516
iter:   4  22:19:48  -1.11          -74.351518
iter:   5  22:29:27  -2.36          -74.351518
iter:   6  22:39:06  -3.56          -74.351518
iter:   7  22:48:45  -4.72          -74.351518
iter:   8  22:58:26  -5.85          -74.351518
iter:   9  23:08:07  -6.96          -74.351518
iter:  10  23:17:47  -8.08          -74.351518

Converged after 10 iterations.

Dipole moment: (2.299211, -1.166700, -0.000000) |e|*Ang

Energy contributions relative to reference atoms: (reference = -8350.029098)

Kinetic:        -43.457711
Potential:      +21.464193
External:        +0.000000
XC:             -52.497784
Entropy (-ST):   -0.000007
Local:           +0.139787
Free energy:    -74.351522
Extrapolated:   -74.351518

Showing only first 2 kpts
 Kpt  Band  Eigenvalues  Occupancy
  0    14      1.84158    0.00002
  0    15      2.03674    0.00002
  0    16      4.80278    0.00000
  0    17      4.88289    0.00000

  1    14      1.83525    0.00004
  1    15      2.03240    0.00004
  1    16      4.79886    0.00000
  1    17      4.87748    0.00000

Fermi level: 4.02609

No gap
Writing to gsresponse.gpw (mode='all')